50
1 1377 1893
2 997 911
3 177 1424
4 1717 1155
5 1773 1398
6 44 2193
7 1619 2397
8 875 1941
9 2295 787
10 2068 1615
11 1684 158
12 1863 1191
13 1721 2990
14 254 1904
15 1489 2936
16 879 2384
17 2800 1036
18 2675 2614
19 2139 1865
20 101 221
21 631 1391
22 333 2984
23 796 2613
24 2597 526
25 515 2012
26 1851 2177
27 1470 2708
28 2561 1769
29 672 1965
30 1873 1326
31 133 1817
32 2021 1230
33 1674 121
34 1086 900
35 696 2269
36 1427 2266
37 589 2351
38 2205 776
39 700 58
40 553 45
41 1214 1887
42 1957 1421
43 1409 488
44 2574 2307
45 9 1025
46 1769 83
47 1444 560
48 919 712
49 1060 1688
50 2592 178
